[2026-03-23T16:21:48.634Z] Pipeline "set_ds_1_ds_1_s005_g005" → 2026_03_23_16_21_48_set_ds_1_ds_1_s005_g005_max.sol
Set parameter WLSAccessID
Set parameter WLSSecret
Set parameter LicenseID to value 2792458
Set parameter LogFile to value "gurobi.log"
Using license file /root/gurobi.lic
Academic license 2792458 - for non-commercial use only - registered to an___@studenti.unipg.it

Gurobi Optimizer version 13.0.1 build v13.0.1rc0 (linux64 - "Ubuntu 24.04.4 LTS")
Copyright (c) 2026, Gurobi Optimization, LLC

Warning: Duplicate section found (read 'binary') - Is a variable name equal to an LP file format keyword?
Warning: Duplicate section found (read 'binary') - Is a variable name equal to an LP file format keyword?
Warning: Duplicate section found (read 'binary') - Is a variable name equal to an LP file format keyword?
Warning: Duplicate section found (read 'binary') - Is a variable name equal to an LP file format keyword?
Warning: Duplicate section found (read 'binary') - Is a variable name equal to an LP file format keyword?
Warning: Duplicate section found (read 'binary') - Is a variable name equal to an LP file format keyword?
Warning: Duplicate section found (read 'binary') - Is a variable name equal to an LP file format keyword?
Warning: Duplicate section found (read 'binary') - Is a variable name equal to an LP file format keyword?
Warning: Duplicate section found (read 'binary') - Is a variable name equal to an LP file format keyword?
Warning: Duplicate section found (read 'binary') - Is a variable name equal to an LP file format keyword?
Warning: Further warnings of this type will be omitted.
Read LP format model from file /root/bgw/data/uploads/2026_03_23_16_21_48_set_ds_1_ds_1_s005_g005_max.lp
Reading time = 0.00 seconds
: 1636 rows, 243 columns, 4548 nonzeros

Using Gurobi shared library /opt/gurobi1301/linux64/lib/libgurobi.so.13.0.1

CPU model: AMD EPYC-Genoa Processor, instruction set [SSE2|AVX|AVX2|AVX512]
Thread count: 16 physical cores, 16 logical processors, using up to 16 threads

Academic license 2792458 - for non-commercial use only - registered to an___@studenti.unipg.it
Optimize a model with 1636 rows, 243 columns and 4548 nonzeros (Max)
Model fingerprint: 0xd86f052e
Model has 51 linear objective coefficients
Variable types: 66 continuous, 177 integer (177 binary)
Coefficient statistics:
  Matrix range     [1e+00, 2e+01]
  Objective range  [1e+00, 1e+00]
  Bounds range     [1e+00, 1e+00]
  RHS range        [1e+00, 2e+01]

Found heuristic solution: objective 51.0000000
Presolve removed 657 rows and 98 columns
Presolve time: 0.01s
Presolved: 979 rows, 145 columns, 3069 nonzeros
Variable types: 0 continuous, 145 integer (134 binary)
Found heuristic solution: objective 72.0000000

Root relaxation: objective 2.730000e+02, 182 iterations, 0.01 seconds (0.01 work units)

    Nodes    |    Current Node    |     Objective Bounds      |     Work
 Expl Unexpl |  Obj  Depth IntInf | Incumbent    BestBd   Gap | It/Node Time

     0     0  273.00000    0   61   72.00000  273.00000   279%     -    0s
H    0     0                      79.0000000  273.00000   246%     -    0s
H    0     0                     108.0000000  273.00000   153%     -    0s
H    0     0                     111.0000000  273.00000   146%     -    0s
H    0     0                     112.0000000  273.00000   144%     -    0s
     0     0  273.00000    0   62  112.00000  273.00000   144%     -    0s
H    0     0                     114.0000000  273.00000   139%     -    0s
H    0     0                     117.0000000  273.00000   133%     -    0s
H    0     0                     118.0000000  273.00000   131%     -    0s
     0     0  273.00000    0   61  118.00000  273.00000   131%     -    0s
     0     0  273.00000    0   61  118.00000  273.00000   131%     -    0s
     0     0  273.00000    0   61  118.00000  273.00000   131%     -    0s
     0     0  273.00000    0   61  118.00000  273.00000   131%     -    0s
H    0     0                     128.0000000  273.00000   113%     -    0s
     0     0  273.00000    0   61  128.00000  273.00000   113%     -    0s
     0     0  273.00000    0   60  128.00000  273.00000   113%     -    0s
     0     0  273.00000    0   58  128.00000  273.00000   113%     -    0s
     0     0  273.00000    0   61  128.00000  273.00000   113%     -    0s
     0     0  273.00000    0   61  128.00000  273.00000   113%     -    0s
     0     0  273.00000    0   61  128.00000  273.00000   113%     -    0s
     0     0  273.00000    0   58  128.00000  273.00000   113%     -    0s
     0     2  273.00000    0   58  128.00000  273.00000   113%     -    0s
 33316 10358  133.42308   45   49  128.00000  191.67308  49.7%  41.7    5s
H36836 11006                     129.0000000  189.84615  47.2%  41.2    5s
H37986 11082                     132.0000000  188.69615  43.0%  41.2    5s
 81602 17586  157.48077   37   45  132.00000  172.00000  30.3%  38.7   10s
 138405 19218  143.51834   41   57  132.00000  160.46154  21.6%  37.5   15s
 193407 14093  143.23077   44   37  132.00000  152.11538  15.2%  37.2   20s
 243503   978  134.98291   42   62  132.00000  137.77538  4.38%  37.3   25s

Cutting planes:
  Cover: 2
  Inf proof: 6

Explored 246698 nodes (9173704 simplex iterations) in 25.20 seconds (35.32 work units)
Thread count was 16 (of 16 available processors)

Solution count 10: 132 129 128 ... 79

Optimal solution found (tolerance 1.00e-04)
Best objective 1.320000000000e+02, best bound 1.320000000000e+02, gap 0.0000%

Wrote result file '/root/bgw/data/results/2026_03_23_16_21_48_set_ds_1_ds_1_s005_g005_max.sol'

